p cnf 1405 2181
32 -76 -99 101 0
32 -76 -99 -101 0
11 -76 -86 102 0
-86 97 98 -102 0
28 -33 -50 103 0
-50 57 -103 104 0
57 62 -104 105 0
62 -67 -105 106 0
-67 77 -98 -106 0
14 -16 -21 107 0
-21 25 -107 108 0
25 31 -108 109 0
31 42 -109 110 0
42 51 94 -110 0
-3 -16 20 111 0
20 32 -111 112 0
32 -35 -112 113 0
-35 41 -113 114 0
41 -47 67 -114 0
68 85 115 116 0
68 85 115 -116 0
68 85 -115 116 0
68 85 -115 -116 0
-53 -73 -76 -92 0
-40 -70 -79 -99 0
-13 -17 58 117 0
58 69 -117 118 0
69 -70 -118 119 0
-70 -80 -119 120 0
-80 -83 -120 121 0
-83 86 -121 122 0
86 -94 -96 -122 0
-6 19 -53 123 0
-53 68 90 -123 0
23 51 -61 124 0
-61 -69 -74 -124 0
-44 -97 -99 125 0
-44 -97 -99 -125 0
-8 -11 -36 49 0
12 -52 56 126 0
12 -52 56 -126 0
25 48 53 127 0
25 48 53 -127 0
6 -60 -100 128 0
6 -60 -100 -128 0
6 -20 -35 40 0
30 72 129 130 0
30 72 129 -130 0
30 72 -129 130 0
30 72 -129 -130 0
-7 24 131 132 0
-7 24 131 -132 0
-7 24 -131 132 0
-7 24 -131 -132 0
24 -30 52 133 0
52 53 -133 134 0
53 -65 -95 -134 0
-16 20 -35 135 0
-35 49 -135 136 0
49 52 -136 137 0
52 54 86 -137 0
-18 38 58 138 0
58 61 -138 139 0
61 62 -139 140 0
62 -94 96 -140 0
12 -26 48 141 0
12 -26 48 -141 0
-3 35 46 -92 0
-19 -51 54 142 0
-19 -51 54 -142 0
14 15 67 143 0
14 15 67 -143 0
24 43 45 144 0
45 47 -144 145 0
47 82 -145 146 0
82 -91 94 -146 0
41 46 -88 147 0
41 46 -88 -147 0
-19 -32 -42 148 0
-19 -32 -42 -148 0
2 13 70 149 0
70 -79 -91 -149 0
-1 7 -43 150 0
-1 7 -43 -150 0
16 17 -52 151 0
-52 61 71 -151 0
4 -9 -28 152 0
-28 30 -152 153 0
30 35 -153 154 0
35 -41 97 -154 0
38 -40 -73 -93 0
20 22 -37 155 0
-37 39 75 -155 0
-45 -67 -77 156 0
-45 -67 -77 -156 0
-40 -63 -78 157 0
-40 -63 -78 -157 0
-22 -35 57 96 0
-13 23 -54 158 0
-54 -56 -158 159 0
-56 -79 -159 160 0
-79 81 -82 -160 0
8 -20 -24 161 0
-24 60 -161 162 0
60 98 -99 -162 0
-41 72 99 163 0
-41 72 99 -163 0
5 8 37 164 0
37 93 -96 -164 0
83 94 165 166 0
83 94 165 -166 0
83 94 -165 166 0
83 94 -165 -166 0
62 -76 80 167 0
80 -91 -96 -167 0
1 2 -18 168 0
-18 22 -168 169 0
22 24 -169 170 0
24 45 -170 171 0
45 -52 -171 172 0
-52 -61 -172 173 0
-61 -78 -83 -173 0
30 45 174 175 0
30 45 174 -175 0
30 45 -174 175 0
30 45 -174 -175 0
-11 -36 47 176 0
47 48 -176 177 0
48 -63 -177 178 0
-63 -66 93 -178 0
25 28 50 179 0
50 -65 -74 -179 0
25 -46 58 -59 0
11 -17 -29 180 0
-29 -50 -180 181 0
-50 52 -181 182 0
52 53 -182 183 0
53 -55 -183 184 0
-55 57 -184 185 0
57 58 -185 186 0
58 -60 -65 -186 0
-3 24 -45 187 0
-3 24 -45 -187 0
16 31 -54 188 0
-54 -63 -188 189 0
-63 75 86 -189 0
2 -38 -88 190 0
-88 96 97 -190 0
3 -31 49 -67 0
24 41 -81 86 0
6 20 -35 191 0
-35 -51 -191 192 0
-51 -59 87 -192 0
35 -39 -78 84 0
25 39 -50 193 0
-50 61 -100 -193 0
27 -73 -78 194 0
27 -73 -78 -194 0
8 15 24 195 0
24 26 -195 196 0
26 31 -196 197 0
31 42 -197 198 0
42 -56 -198 199 0
-56 -59 -199 200 0
-59 69 95 -200 0
-27 35 44 201 0
-27 35 44 -201 0
-6 11 -31 202 0
-31 -62 -202 203 0
-62 -71 -203 204 0
-71 82 -204 205 0
82 83 -205 206 0
83 90 -100 -206 0
-22 -54 73 207 0
73 -78 89 -207 0
-6 31 -48 208 0
-48 89 93 -208 0
29 -62 -75 94 0
-4 7 25 209 0
25 -27 -209 210 0
-27 -77 96 -210 0
12 74 84 98 0
-25 -63 83 211 0
-25 -63 83 -211 0
45 46 -51 212 0
-51 -65 -212 213 0
-65 73 -75 -213 0
29 57 214 215 0
29 57 214 -215 0
29 57 -214 215 0
29 57 -214 -215 0
-7 11 -33 216 0
-33 37 -216 217 0
37 -69 80 -217 0
-29 52 -67 218 0
-67 -72 -218 219 0
-72 -76 -219 220 0
-76 89 94 -220 0
-30 54 -61 221 0
-30 54 -61 -221 0
27 -30 37 222 0
37 72 -222 223 0
72 -82 -93 -223 0
71 73 91 224 0
71 73 91 -224 0
-26 32 57 -88 0
46 96 99 225 0
46 96 99 -225 0
1 -82 85 -95 0
4 11 -16 226 0
-16 69 70 -226 0
-28 68 74 89 0
-27 30 -51 -68 0
-41 60 65 227 0
65 74 -86 -227 0
-11 -37 48 228 0
48 50 -228 229 0
50 -71 -229 230 0
-71 -73 -230 231 0
-73 82 -231 232 0
82 -88 -92 -232 0
-11 -40 91 96 0
21 49 76 233 0
21 49 76 -233 0
-21 28 -34 65 0
22 -26 -88 -98 0
-23 54 57 234 0
57 -64 70 -234 0
-3 -8 -14 235 0
-14 73 -235 236 0
73 87 88 -236 0
-27 36 -39 237 0
-39 -63 -237 238 0
-63 -67 -238 239 0
-67 95 96 -239 0
-4 -10 -23 240 0
-23 50 -240 241 0
50 52 -241 242 0
52 69 -242 243 0
69 -82 -243 244 0
-82 89 -90 -244 0
35 -45 61 -72 0
-5 -9 -14 245 0
-14 -44 -245 246 0
-44 89 -246 247 0
89 96 -97 -247 0
-7 -21 -25 248 0
-25 -29 -248 249 0
-29 39 -249 250 0
39 -58 -250 251 0
-58 -78 -251 252 0
-78 83 -90 -252 0
-10 -39 41 81 0
-9 -12 25 253 0
25 92 99 -253 0
21 -26 33 254 0
33 34 -254 255 0
34 69 -82 -255 0
8 10 23 256 0
23 24 -256 257 0
24 40 -257 258 0
40 44 -258 259 0
44 -50 -74 -259 0
3 16 19 260 0
19 21 -260 261 0
21 -35 -261 262 0
-35 -52 -262 263 0
-52 78 -88 -263 0
-15 -21 264 265 0
-15 -21 264 -265 0
-15 -21 -264 265 0
-15 -21 -264 -265 0
4 5 -11 266 0
-11 32 -266 267 0
32 -51 -92 -267 0
1 27 -40 268 0
-40 -50 -61 -268 0
14 20 63 269 0
14 20 63 -269 0
-29 -36 63 270 0
63 -84 92 -270 0
20 -33 -56 271 0
-56 -75 88 -271 0
18 19 -30 272 0
18 19 -30 -272 0
4 31 -32 273 0
-32 -43 -273 274 0
-43 -58 -274 275 0
-58 -61 -275 276 0
-61 -82 -94 -276 0
-20 -25 31 277 0
31 32 -277 278 0
32 60 -278 279 0
60 92 -97 -279 0
40 -69 72 280 0
72 -81 -84 -280 0
-29 34 63 281 0
63 -78 82 -281 0
16 -38 47 282 0
47 -48 -51 -282 0
-53 63 283 284 0
-53 63 283 -284 0
-53 63 -283 284 0
-53 63 -283 -284 0
4 5 16 285 0
16 24 -285 286 0
24 -32 -286 287 0
-32 -39 -78 -287 0
4 -12 15 288 0
15 -16 -288 289 0
-16 50 -289 290 0
50 62 -290 291 0
62 86 -87 -291 0
-16 32 50 292 0
50 -56 -100 -292 0
35 -57 -61 -73 0
-10 27 51 293 0
-10 27 51 -293 0
-2 34 97 294 0
-2 34 97 -294 0
-6 -8 14 295 0
14 62 -93 -295 0
-3 -9 44 296 0
-3 -9 44 -296 0
-5 20 -31 297 0
-31 70 -297 298 0
70 71 -80 -298 0
40 64 81 299 0
81 91 -299 300 0
91 92 -95 -300 0
34 -73 76 301 0
76 -82 85 -301 0
-7 31 40 302 0
40 -78 94 -302 0
84 -91 100 303 0
84 -91 100 -303 0
-2 -5 26 304 0
26 -34 -304 305 0
-34 -51 69 -305 0
-23 60 -64 306 0
-64 -86 -306 307 0
-86 89 95 -307 0
-38 41 -53 308 0
-53 66 -308 309 0
66 -71 -309 310 0
-71 -87 -310 311 0
-87 90 -93 -311 0
25 37 -59 312 0
-59 -68 -312 313 0
-68 79 -313 314 0
79 -80 -98 -314 0
17 -45 47 86 0
35 90 315 316 0
35 90 315 -316 0
35 90 -315 316 0
35 90 -315 -316 0
-25 -54 -80 317 0
-25 -54 -80 -317 0
-73 88 318 319 0
-73 88 318 -319 0
-73 88 -318 319 0
-73 88 -318 -319 0
-6 -18 47 320 0
47 -53 -95 -320 0
6 13 40 321 0
40 -44 -321 322 0
-44 -63 -322 323 0
-63 -72 92 -323 0
-40 48 -86 -100 0
-34 47 72 324 0
-34 47 72 -324 0
1 16 -22 325 0
-22 -32 39 -325 0
11 47 57 -85 0
64 -65 -87 326 0
64 -65 -87 -326 0
-26 -77 -88 -93 0
15 67 -80 -95 0
20 25 41 327 0
41 43 -327 328 0
43 -51 -328 329 0
-51 -69 -329 330 0
-69 72 -330 331 0
72 -82 97 -331 0
22 27 42 332 0
42 -79 -332 333 0
-79 -91 -97 -333 0
40 -60 74 334 0
74 -76 -96 -334 0
82 -83 95 335 0
82 -83 95 -335 0
4 15 -17 336 0
-17 -21 -336 337 0
-21 48 -337 338 0
48 64 -338 339 0
64 66 -339 340 0
66 -88 -340 341 0
-88 91 93 -341 0
-9 22 71 -76 0
-14 -49 -88 92 0
-34 -46 66 -76 0
29 -65 -74 80 0
-17 -26 -33 342 0
-33 37 -342 343 0
37 -50 -343 344 0
-50 74 76 -344 0
-16 19 -34 345 0
-34 84 97 -345 0
-9 -59 -88 -99 0
-10 30 -35 346 0
-35 38 -77 -346 0
-2 6 9 347 0
9 -11 -347 348 0
-11 -20 -348 349 0
-20 -46 -349 350 0
-46 -57 68 -350 0
7 -56 61 351 0
61 -74 92 -351 0
1 39 95 100 0
-4 14 32 352 0
32 39 40 -352 0
1 -34 37 353 0
37 -50 -67 -353 0
-29 83 91 94 0
13 -24 46 354 0
46 65 -354 355 0
65 -71 -355 356 0
-71 -88 -90 -356 0
74 -91 -96 99 0
-7 -66 357 358 0
-7 -66 357 -358 0
-7 -66 -357 358 0
-7 -66 -357 -358 0
-24 39 -64 359 0
-64 82 -359 360 0
82 85 91 -360 0
24 35 -69 -98 0
40 -54 89 -91 0
6 28 37 361 0
37 77 -361 362 0
77 98 99 -362 0
38 79 94 363 0
38 79 94 -363 0
-27 93 -96 364 0
-27 93 -96 -364 0
-22 -26 365 366 0
-22 -26 365 -366 0
-22 -26 -365 366 0
-22 -26 -365 -366 0
30 61 -78 367 0
30 61 -78 -367 0
-12 34 -57 368 0
-57 -61 -73 -368 0
2 5 -8 369 0
-8 -52 -369 370 0
-52 54 -370 371 0
54 -55 -371 372 0
-55 65 -372 373 0
65 -69 -373 374 0
-69 -72 76 -374 0
14 -25 -36 375 0
-36 75 99 -375 0
15 33 -38 376 0
15 33 -38 -376 0
-3 -42 47 377 0
47 51 -377 378 0
51 -63 -378 379 0
-63 65 69 -379 0
-6 23 -48 380 0
-48 70 -380 381 0
70 74 86 -381 0
16 26 -35 -87 0
12 16 -19 -67 0
16 -31 42 382 0
42 48 -382 383 0
48 51 -383 384 0
51 53 -384 385 0
53 -67 -83 -385 0
-2 -21 -45 386 0
-45 -50 -63 -386 0
27 32 -35 387 0
-35 -48 -387 388 0
-48 -90 -95 -388 0
16 -18 -21 389 0
-21 -42 -65 -389 0
-7 54 390 391 0
-7 54 390 -391 0
-7 54 -390 391 0
-7 54 -390 -391 0
1 9 73 97 0
47 48 -63 392 0
47 48 -63 -392 0
15 -24 45 61 0
6 -18 22 393 0
22 24 -393 394 0
24 -27 35 -394 0
16 22 -59 395 0
16 22 -59 -395 0
-7 -81 396 397 0
-7 -81 396 -397 0
-7 -81 -396 397 0
-7 -81 -396 -397 0
6 7 -48 398 0
-48 -52 -398 399 0
-52 -56 83 -399 0
-7 20 -85 -95 0
3 37 -42 400 0
-42 -59 -400 401 0
-59 66 -401 402 0
66 71 -402 403 0
71 -76 86 -403 0
23 -25 -30 404 0
-30 34 -404 405 0
34 40 -405 406 0
40 51 60 -406 0
-12 -25 29 407 0
29 41 -407 408 0
41 -44 -408 409 0
-44 50 -409 410 0
50 -56 76 -410 0
-1 77 94 411 0
-1 77 94 -411 0
-8 -62 -82 -85 0
-3 -5 -49 412 0
-49 -79 -88 -412 0
-22 -26 67 413 0
67 78 -413 414 0
78 -79 -414 415 0
-79 -89 -415 416 0
-89 -92 95 -416 0
-15 28 -62 417 0
-62 77 99 -417 0
-6 -8 32 418 0
32 60 -418 419 0
60 -70 -419 420 0
-70 -78 -83 -420 0
-17 -20 -45 58 0
21 -61 65 421 0
21 -61 65 -421 0
-9 34 57 62 0
15 -69 422 423 0
15 -69 422 -423 0
15 -69 -422 423 0
15 -69 -422 -423 0
15 -29 -44 49 0
39 81 424 425 0
39 81 424 -425 0
39 81 -424 425 0
39 81 -424 -425 0
-4 -16 33 426 0
-4 -16 33 -426 0
33 -39 61 427 0
61 62 -74 -427 0
-3 5 -25 428 0
-25 29 -428 429 0
29 -44 -429 430 0
-44 58 -430 431 0
58 61 -431 432 0
61 63 95 -432 0
-27 47 67 433 0
67 70 71 -433 0
-1 21 -35 57 0
-12 44 55 434 0
-12 44 55 -434 0
-28 -60 63 435 0
-28 -60 63 -435 0
3 23 24 76 0
33 52 54 436 0
54 56 -436 437 0
56 91 -100 -437 0
50 55 -97 438 0
50 55 -97 -438 0
-28 -41 -51 439 0
-28 -41 -51 -439 0
11 22 79 440 0
79 -88 -100 -440 0
-10 16 -52 441 0
-10 16 -52 -441 0
6 25 26 442 0
26 -61 -442 443 0
-61 70 80 -443 0
-2 13 -18 444 0
-18 -37 -444 445 0
-37 39 -445 446 0
39 44 -50 -446 0
47 -49 -82 447 0
47 -49 -82 -447 0
29 31 -46 448 0
-46 48 84 -448 0
-54 -76 -86 449 0
-54 -76 -86 -449 0
5 -49 -72 -87 0
-31 -44 66 450 0
-31 -44 66 -450 0
7 -8 -22 451 0
-22 32 -451 452 0
32 -63 -452 453 0
-63 -65 -453 454 0
-65 -88 -454 455 0
-88 90 -91 -455 0
8 17 -29 456 0
-29 -33 69 -456 0
2 -5 -50 81 0
3 14 17 46 0
-5 92 457 458 0
-5 92 457 -458 0
-5 92 -457 458 0
-5 92 -457 -458 0
71 -85 89 -100 0
10 11 -27 459 0
-27 31 -459 460 0
31 33 -460 461 0
33 54 -461 462 0
54 -61 -462 463 0
-61 -70 -463 464 0
-70 -87 -92 -464 0
2 39 54 465 0
2 39 54 -465 0
-20 -45 56 466 0
56 57 -466 467 0
57 -72 -75 -467 0
34 37 59 468 0
59 -74 -83 -468 0
34 -55 67 -68 0
20 -26 -38 469 0
-38 -59 -469 470 0
-59 61 -470 471 0
61 62 -471 472 0
62 -64 -472 473 0
-64 66 -473 474 0
66 67 -474 475 0
67 -69 -74 -475 0
-12 33 -54 476 0
-12 33 -54 -476 0
5 6 25 477 0
25 40 -477 478 0
40 -63 -478 479 0
-63 -72 -479 480 0
-72 84 95 -480 0
11 -47 -97 481 0
11 -47 -97 -481 0
12 -40 58 -76 0
33 50 -90 95 0
15 29 -44 482 0
-44 -60 -482 483 0
-60 -68 96 -483 0
44 -48 -87 93 0
-9 -16 484 485 0
-9 -16 484 -485 0
-9 -16 -484 485 0
-9 -16 -484 -485 0
34 48 -59 70 0
4 36 -82 -87 0
17 24 33 486 0
33 35 -486 487 0
35 40 -487 488 0
40 51 -488 489 0
51 -65 -489 490 0
-65 -68 78 -490 0
-9 -36 44 53 0
-15 20 -40 491 0
-40 -71 -491 492 0
-71 -80 -492 493 0
-80 91 -493 494 0
91 92 99 -494 0
2 -31 -63 495 0
-63 82 -495 496 0
82 -87 98 -496 0
3 -15 40 497 0
40 -57 98 -497 0
5 38 -71 -84 0
7 -13 16 498 0
16 34 -498 499 0
34 -36 -86 -499 0
21 83 93 500 0
21 83 93 -500 0
-34 -72 92 501 0
-34 -72 92 -501 0
54 55 -60 502 0
-60 -74 -502 503 0
-74 82 -84 -503 0
38 66 504 505 0
38 66 504 -505 0
38 66 -504 505 0
38 66 -504 -505 0
3 -16 20 506 0
20 -42 -506 507 0
-42 46 -507 508 0
46 -78 89 -508 0
-38 61 -76 509 0
-76 -81 -509 510 0
-81 -85 98 -510 0
-2 -39 63 -70 0
36 -39 46 511 0
46 81 -91 -511 0
80 82 100 512 0
80 82 100 -512 0
5 8 -35 513 0
-35 41 -513 514 0
41 66 -97 -514 0
-4 55 515 516 0
-4 55 515 -516 0
-4 55 -515 516 0
-4 55 -515 -516 0
10 -91 94 517 0
10 -91 94 -517 0
13 20 -25 518 0
-25 78 79 -518 0
-37 77 83 98 0
-36 39 -60 -77 0
-1 -50 69 519 0
69 74 -519 520 0
74 83 -95 -520 0
5 -20 -46 521 0
-46 57 -521 522 0
57 59 -522 523 0
59 -80 -523 524 0
-80 -82 -524 525 0
-82 91 -97 -525 0
-20 -49 100 526 0
-20 -49 100 -526 0
30 58 85 527 0
30 58 85 -527 0
-7 -30 37 528 0
37 -43 74 -528 0
31 -35 -97 529 0
31 -35 -97 -529 0
-32 63 66 530 0
66 -73 79 -530 0
4 5 -12 531 0
-12 -17 -531 532 0
-17 -23 -532 533 0
-23 82 -533 534 0
82 96 97 -534 0
-36 45 -48 535 0
-48 -72 -76 -535 0
-13 -19 -32 536 0
-32 59 -536 537 0
59 61 -537 538 0
61 78 -538 539 0
78 -91 -539 540 0
-91 98 -99 -540 0
5 -6 44 541 0
44 -54 -541 542 0
-54 70 -81 -542 0
-14 -18 -23 543 0
-23 -53 98 -543 0
-16 -30 -34 544 0
-34 -38 -544 545 0
-38 48 -545 546 0
48 -67 -546 547 0
-67 -87 -547 548 0
-87 92 -99 -548 0
1 8 -19 549 0
-19 -48 -549 550 0
-48 50 90 -550 0
-18 -21 34 551 0
-18 -21 34 -551 0
30 -35 42 552 0
42 43 -552 553 0
43 78 -91 -553 0
17 19 32 554 0
32 33 -554 555 0
33 49 -555 556 0
49 53 -556 557 0
53 -59 -83 -557 0
12 25 28 558 0
28 30 -558 559 0
30 -44 -559 560 0
-44 -61 -560 561 0
-61 87 -97 -561 0
-1 -24 -30 562 0
-1 -24 -30 -562 0
13 14 -20 563 0
-20 41 -60 -563 0
10 36 -49 564 0
-49 -59 -70 -564 0
1 23 29 72 0
-38 -45 72 -93 0
29 -42 -65 565 0
-65 -84 97 -565 0
-3 27 28 -39 0
1 -6 13 566 0
13 40 -566 567 0
40 -41 -567 568 0
-41 -52 -568 569 0
-52 -67 -569 570 0
-67 -70 -91 -570 0
-29 -34 40 571 0
40 41 69 -571 0
49 -78 81 572 0
81 -90 -93 -572 0
-38 43 72 573 0
72 -87 91 -573 0
25 -47 56 574 0
56 -57 -60 -574 0
-62 72 575 576 0
-62 72 575 -576 0
-62 72 -575 576 0
-62 72 -575 -576 0
13 14 25 577 0
25 33 -577 578 0
33 -41 -578 579 0
-41 -48 -87 -579 0
-9 13 -21 580 0
-21 24 -580 581 0
24 -25 -581 582 0
-25 59 -582 583 0
59 71 -583 584 0
71 95 -96 -584 0
-25 41 59 -65 0
44 -66 -70 -82 0
6 -19 36 60 0
-2 -11 43 585 0
-2 -11 43 -585 0
-15 -17 23 71 0
-12 -18 53 586 0
-12 -18 53 -586 0
1 -4 -14 587 0
-14 29 -587 588 0
29 -40 -588 589 0
-40 79 -589 590 0
79 80 -89 -590 0
49 73 90 100 0
3 43 -82 591 0
-82 85 -591 592 0
85 -91 94 -592 0
9 -16 40 593 0
40 49 -87 -593 0
93 -100 594 595 0
93 -100 594 -595 0
93 -100 -594 595 0
93 -100 -594 -595 0
4 -11 -14 596 0
-14 35 -596 597 0
35 -43 -597 598 0
-43 -60 78 -598 0
-2 -32 69 599 0
69 -73 -599 600 0
-73 -95 98 -600 0
-7 -47 50 601 0
50 -62 -601 602 0
-62 75 -602 603 0
75 -80 -603 604 0
-80 -96 99 -604 0
34 46 -68 605 0
-68 -77 -605 606 0
-77 88 -89 -606 0
26 -54 56 95 0
44 99 607 608 0
44 99 607 -608 0
44 99 -607 608 0
44 99 -607 -608 0
-34 -63 -89 609 0
-34 -63 -89 -609 0
-4 -82 97 610 0
-4 -82 97 -610 0
1 -15 -27 611 0
-27 56 -62 -611 0
-9 15 22 612 0
22 49 -612 613 0
49 -53 -613 614 0
-53 -72 -81 -614 0
-49 57 -95 615 0
-49 57 -95 -615 0
-43 56 81 616 0
-43 56 81 -616 0
10 25 -31 617 0
-31 -41 48 -617 0
20 56 66 -94 0
-2 73 -74 -96 0
-35 -86 -97 618 0
-35 -86 -97 -618 0
-4 -80 619 620 0
-4 -80 619 -620 0
-4 -80 -619 620 0
-4 -80 -619 -620 0
6 24 76 -89 0
-6 29 34 621 0
34 50 -621 622 0
50 52 -622 623 0
52 -60 -623 624 0
-60 -78 -624 625 0
-78 81 -91 -625 0
31 36 51 626 0
51 -88 -100 -626 0
-5 91 627 628 0
-5 91 627 -628 0
-5 91 -627 628 0
-5 91 -627 -628 0
4 49 -69 629 0
-69 83 -85 -629 0
91 -92 630 631 0
91 -92 630 -631 0
91 -92 -630 631 0
91 -92 -630 -631 0
2 -23 632 633 0
2 -23 632 -633 0
2 -23 -632 633 0
2 -23 -632 -633 0
13 24 -26 634 0
-26 -30 -634 635 0
-30 57 -635 636 0
57 73 -636 637 0
73 75 -637 638 0
75 -97 100 -638 0
1 -18 31 639 0
31 80 -85 -639 0
-23 -58 -97 640 0
-23 -58 -97 -640 0
-43 -55 75 -85 0
38 -74 -83 89 0
6 -26 -35 641 0
-35 -42 -641 642 0
-42 46 -642 643 0
46 -59 -643 644 0
-59 83 85 -644 0
-8 -25 28 645 0
28 -43 93 -645 0
-18 -68 -97 646 0
-18 -68 -97 -646 0
-19 39 -44 647 0
-44 47 -86 -647 0
1 -11 15 648 0
15 18 -648 649 0
18 -20 -649 650 0
-20 -29 -650 651 0
-29 -55 -651 652 0
-55 -66 77 -652 0
4 9 16 653 0
16 -65 -653 654 0
-65 70 -83 -654 0
10 48 655 656 0
10 48 655 -656 0
10 48 -655 656 0
10 48 -655 -656 0
-13 23 41 657 0
41 48 49 -657 0
3 10 -43 658 0
-43 46 -658 659 0
46 -59 -76 -659 0
-38 92 100 660 0
-38 92 100 -660 0
-5 8 22 661 0
22 -33 -661 662 0
-33 55 -662 663 0
55 74 -663 664 0
74 -80 -664 665 0
-80 -97 -99 -665 0
83 -100 666 667 0
83 -100 666 -667 0
83 -100 -666 667 0
83 -100 -666 -667 0
-16 -75 668 669 0
-16 -75 668 -669 0
-16 -75 -668 669 0
-16 -75 -668 -669 0
-7 -33 48 670 0
48 -73 -670 671 0
-73 91 -671 672 0
91 94 100 -672 0
33 44 -78 673 0
33 44 -78 -673 0
7 8 49 674 0
49 -63 -674 675 0
-63 98 -100 -675 0
3 15 37 676 0
37 46 86 -676 0
2 -5 47 88 0
-31 -35 677 678 0
-31 -35 677 -678 0
-31 -35 -677 678 0
-31 -35 -677 -678 0
39 70 -87 679 0
39 70 -87 -679 0
-21 43 -66 680 0
-66 -70 -82 -680 0
8 11 14 681 0
14 -17 -681 682 0
-17 -61 -682 683 0
-61 63 -683 684 0
63 -64 -684 685 0
-64 74 -685 686 0
74 -78 -686 687 0
-78 -81 85 -687 0
23 -34 -45 84 0
24 42 -47 688 0
24 42 -47 -688 0
-12 -51 56 689 0
56 60 -689 690 0
60 -72 -690 691 0
-72 74 78 -691 0
-15 32 -57 692 0
-57 79 -692 693 0
79 83 95 -693 0
25 35 -44 -96 0
21 25 -28 -76 0
25 -40 51 694 0
51 57 -694 695 0
57 60 -695 696 0
60 62 -696 697 0
62 -76 -92 -697 0
-4 -11 -30 698 0
-30 -54 -698 699 0
-54 -59 -72 -699 0
36 41 -44 700 0
-44 -57 -99 -700 0
25 -27 -30 701 0
-30 -51 -74 -701 0
6 -16 63 702 0
6 -16 63 -702 0
10 18 82 703 0
10 18 82 -703 0
56 57 -72 704 0
56 57 -72 -704 0
24 -33 54 70 0
15 -27 31 705 0
31 33 -705 706 0
33 -36 44 -706 0
25 31 -68 707 0
25 31 -68 -707 0
-16 -90 708 709 0
-16 -90 708 -709 0
-16 -90 -708 709 0
-16 -90 -708 -709 0
-4 15 16 710 0
16 -57 -710 711 0
-57 -61 -711 712 0
-61 -65 92 -712 0
-16 29 -94 713 0
-16 29 -94 -713 0
12 46 -51 714 0
-51 -68 -714 715 0
-68 75 -715 716 0
75 80 -716 717 0
80 -85 95 -717 0
32 -34 -39 718 0
-39 43 -718 719 0
43 49 -719 720 0
49 60 69 -720 0
3 -21 -34 721 0
-34 38 -721 722 0
38 50 -722 723 0
50 -53 -723 724 0
-53 59 -724 725 0
59 -65 85 -725 0
-10 86 726 727 0
-10 86 726 -727 0
-10 86 -726 727 0
-10 86 -726 -727 0
-17 -71 -91 -94 0
-1 4 -12 728 0
-12 -14 -728 729 0
-14 -58 -729 730 0
-58 -88 -97 -730 0
8 -31 -35 731 0
-35 76 -731 732 0
76 87 -732 733 0
87 -88 -98 -733 0
-24 37 -71 86 0
-15 -17 41 734 0
41 69 -734 735 0
69 -79 -735 736 0
-79 -87 -92 -736 0
-26 -29 -54 67 0
30 -70 74 737 0
30 -70 74 -737 0
-18 43 66 71 0
24 -78 738 739 0
24 -78 738 -739 0
24 -78 -738 739 0
24 -78 -738 -739 0
24 -38 -53 58 0
48 90 740 741 0
48 90 740 -741 0
48 90 -740 741 0
48 90 -740 -741 0
-13 -25 42 742 0
-13 -25 42 -742 0
4 42 -48 743 0
-48 70 -743 744 0
70 71 -83 -744 0
-12 14 -34 745 0
-34 38 -745 746 0
38 -53 -746 747 0
-53 67 -747 748 0
67 70 72 -748 0
-36 56 76 749 0
76 79 80 -749 0
-10 30 -44 66 0
-21 53 64 750 0
-21 53 64 -750 0
-37 -69 72 751 0
-37 -69 72 -751 0
-9 12 32 752 0
32 33 85 -752 0
-6 42 61 753 0
61 63 -753 754 0
63 65 100 -754 0
59 64 755 756 0
59 64 755 -756 0
59 64 -755 756 0
59 64 -755 -756 0
-9 -37 -50 -60 0
20 31 88 -97 0
-19 25 -61 757 0
-19 25 -61 -757 0
15 34 35 758 0
35 -70 -758 759 0
-70 79 89 -759 0
-11 22 -27 760 0
-27 -46 -760 761 0
-46 48 -761 762 0
48 53 -59 -762 0
56 -58 -91 763 0
56 -58 -91 -763 0
38 40 -55 764 0
-55 57 93 -764 0
-63 -85 -95 765 0
-63 -85 -95 -765 0
14 -58 -81 -96 0
-40 -53 75 766 0
-40 -53 75 -766 0
16 -17 -31 767 0
-31 41 -767 768 0
41 -72 -768 769 0
-72 -74 -769 770 0
-74 -97 -770 771 0
-97 99 -100 -771 0
17 26 -38 772 0
-38 -42 78 -772 0
11 -14 -59 90 0
1 12 23 773 0
23 26 55 -773 0
-9 -14 774 775 0
-9 -14 774 -775 0
-9 -14 -774 775 0
-9 -14 -774 -775 0
-1 80 -94 98 0
19 20 -36 776 0
-36 40 -776 777 0
40 42 -777 778 0
42 63 -778 779 0
63 -70 -779 780 0
-70 -79 -96 -780 0
11 48 63 781 0
11 48 63 -781 0
-29 -54 65 782 0
65 66 -782 783 0
66 -81 -84 -783 0
43 46 68 784 0
68 -83 -92 -784 0
43 -64 76 -77 0
29 -35 -47 785 0
-47 -68 -785 786 0
-68 70 -786 787 0
70 71 -787 788 0
71 -73 -788 789 0
-73 75 -789 790 0
75 76 -790 791 0
76 -78 -83 -791 0
-21 42 -63 792 0
-21 42 -63 -792 0
4 -22 793 794 0
4 -22 793 -794 0
4 -22 -793 794 0
4 -22 -793 -794 0
-6 14 15 795 0
15 34 -795 796 0
34 49 -796 797 0
49 -72 -797 798 0
-72 -81 93 -798 0
20 -56 799 800 0
20 -56 799 -800 0
20 -56 -799 800 0
20 -56 -799 -800 0
4 21 -49 801 0
-49 67 -85 -801 0
5 42 59 -99 0
2 24 38 802 0
38 -53 -802 803 0
-53 -69 -77 -803 0
53 -57 -96 804 0
53 -57 -96 -804 0
-18 -25 805 806 0
-18 -25 805 -806 0
-18 -25 -805 806 0
-18 -25 -805 -806 0
43 57 -68 79 0
13 45 -91 -96 0
26 33 42 807 0
42 44 -807 808 0
44 49 -808 809 0
49 60 -809 810 0
60 -74 -810 811 0
-74 -77 87 -811 0
1 8 -18 812 0
-18 -45 -812 813 0
-45 53 62 -813 0
7 -24 29 814 0
29 -49 -814 815 0
-49 -80 -815 816 0
-80 -89 100 -816 0
7 11 -40 817 0
-40 -72 -817 818 0
-72 91 -96 -818 0
12 -24 49 -66 0
14 47 -80 -93 0
2 16 -22 819 0
-22 25 -819 820 0
25 43 -820 821 0
43 -45 -95 -821 0
1 30 92 822 0
1 30 92 -822 0
-43 -81 823 824 0
-43 -81 823 -824 0
-43 -81 -823 824 0
-43 -81 -823 -824 0
63 64 -69 825 0
-69 -83 -825 826 0
-83 91 -93 -826 0
5 47 75 827 0
5 47 75 -827 0
7 12 -25 828 0
-25 29 -828 829 0
29 -51 -829 830 0
-51 55 -830 831 0
55 -87 98 -831 0
-47 70 -85 832 0
-85 -90 -94 -832 0
-11 -48 72 -79 0
9 45 -48 833 0
-48 55 -833 834 0
55 90 -100 -834 0
-6 89 91 835 0
-6 89 91 -835 0
14 17 -44 836 0
-44 50 75 -836 0
3 -13 64 837 0
3 -13 64 -837 0
19 -100 838 839 0
19 -100 838 -839 0
19 -100 -838 839 0
19 -100 -838 -839 0
7 22 29 840 0
29 -34 -840 841 0
-34 87 88 -841 0
-46 86 92 842 0
-46 86 92 -842 0
-4 -45 48 843 0
48 -69 -86 -843 0
-6 -10 -59 844 0
-59 78 -844 845 0
78 83 92 -845 0
9 14 -29 846 0
-29 -55 -846 847 0
-55 66 -847 848 0
66 68 -848 849 0
68 -89 -849 850 0
-89 -91 100 -850 0
-29 -58 851 852 0
-29 -58 851 -852 0
-29 -58 -851 852 0
-29 -58 -851 -852 0
39 67 94 853 0
39 67 94 -853 0
-6 -16 -39 854 0
-39 46 -854 855 0
46 -52 83 -855 0
40 -44 856 857 0
40 -44 856 -857 0
40 -44 -856 857 0
40 -44 -856 -857 0
5 6 -41 858 0
-41 72 -858 859 0
72 75 -859 860 0
75 -82 88 -860 0
13 14 -21 861 0
-21 -26 -861 862 0
-26 -32 91 -862 0
7 -8 -45 863 0
-45 54 -863 864 0
54 -57 -864 865 0
-57 -81 -85 -865 0
-22 -28 -41 866 0
-41 68 -866 867 0
68 70 -867 868 0
70 87 -100 -868 0
7 14 -15 869 0
-15 53 -869 870 0
53 -63 -870 871 0
-63 79 -90 -871 0
1 -8 -23 872 0
-23 -27 -872 873 0
-27 -32 -62 -873 0
-25 -39 -43 874 0
-43 -47 -874 875 0
-47 57 -875 876 0
57 -76 -96 -876 0
10 17 -28 877 0
-28 -57 -877 878 0
-57 59 99 -878 0
-27 -30 43 879 0
-27 -30 43 -879 0
39 -44 51 880 0
51 52 -880 881 0
52 87 -100 -881 0
-6 26 28 882 0
28 41 -882 883 0
41 42 -883 884 0
42 58 -884 885 0
58 62 -885 886 0
62 -68 -92 -886 0
21 34 37 887 0
37 39 -887 888 0
39 -53 -888 889 0
-53 -70 96 -889 0
-10 -33 -39 890 0
-10 -33 -39 -890 0
22 23 -29 891 0
-29 50 -69 -891 0
19 45 -58 892 0
-58 -68 -79 -892 0
-2 10 32 893 0
32 38 81 -893 0
6 -47 -54 81 0
38 -51 -74 -93 0
-12 36 37 -48 0
10 -15 22 894 0
22 49 -894 895 0
49 -50 -895 896 0
-50 -61 -896 897 0
-61 -76 -897 898 0
-76 -79 -100 -898 0
-2 -38 -43 899 0
-43 49 -899 900 0
49 50 78 -900 0
58 -87 90 -99 0
-47 52 81 901 0
81 -96 100 -901 0
34 -56 65 902 0
65 -66 -69 -902 0
-71 81 903 904 0
-71 81 903 -904 0
-71 81 -903 904 0
-71 81 -903 -904 0
4 -5 22 905 0
22 23 -905 906 0
23 34 -906 907 0
34 42 -907 908 0
42 -50 -908 909 0
-50 -57 -96 -909 0
-18 22 -30 910 0
-30 33 -910 911 0
33 -34 -911 912 0
-34 68 80 -912 0
-34 50 68 -74 0
53 -75 -79 -91 0
15 -28 45 69 0
-11 -20 52 913 0
-11 -20 52 -913 0
-24 -26 32 80 0
-21 -27 62 914 0
-21 -27 62 -914 0
9 10 -13 915 0
-13 -23 -915 916 0
-23 38 -916 917 0
38 -49 -917 918 0
-49 88 -918 919 0
88 89 -98 -919 0
3 58 82 99 0
12 52 -91 920 0
-91 94 -100 -920 0
2 -9 18 921 0
18 -25 -921 922 0
-25 49 -922 923 0
49 58 -96 -923 0
-4 7 13 924 0
13 -20 -924 925 0
-20 -23 -925 926 0
-23 44 -926 927 0
44 -52 -927 928 0
-52 -69 87 -928 0
-5 8 -11 929 0
-11 -41 -929 930 0
-41 78 -82 -930 0
-16 -56 59 931 0
59 -71 -931 932 0
-71 84 -89 -932 0
4 43 55 933 0
55 -77 -933 934 0
-77 -86 -934 935 0
-86 97 -98 -935 0
8 35 -63 65 0
6 -43 -72 -98 0
-13 -91 936 937 0
-13 -91 936 -937 0
-13 -91 -936 937 0
-13 -91 -936 -937 0
10 -24 -36 938 0
-36 65 -71 -938 0
-4 -18 24 939 0
24 31 -939 940 0
31 58 -940 941 0
58 -62 -941 942 0
-62 -81 -90 -942 0
-58 66 943 944 0
-58 66 943 -944 0
-58 66 -943 944 0
-58 66 -943 -944 0
-52 65 90 945 0
-52 65 90 -945 0
-3 19 34 946 0
34 -40 -946 947 0
-40 -50 57 -947 0
-5 29 65 75 0
-6 -11 82 -83 0
-44 -95 948 949 0
-44 -95 948 -949 0
-44 -95 -948 949 0
-44 -95 -948 -949 0
-13 -89 950 951 0
-13 -89 950 -951 0
-13 -89 -950 951 0
-13 -89 -950 -951 0
15 33 85 -98 0
-9 -15 38 952 0
38 43 -952 953 0
43 59 -953 954 0
59 61 -954 955 0
61 -69 -955 956 0
-69 -87 -956 957 0
-87 90 -100 -957 0
40 45 60 -97 0
-14 100 958 959 0
-14 100 958 -959 0
-14 100 -958 959 0
-14 100 -958 -959 0
-1 13 58 960 0
58 -78 -960 961 0
-78 92 -94 -961 0
-6 9 11 -32 0
22 33 -35 962 0
-35 -39 -962 963 0
-39 66 -963 964 0
66 82 84 -964 0
-6 10 -27 965 0
-27 40 -965 966 0
40 89 -94 -966 0
-32 -67 967 968 0
-32 -67 967 -968 0
-32 -67 -967 968 0
-32 -67 -967 -968 0
-52 -64 84 -94 0
47 -83 -92 98 0
2 15 -35 969 0
-35 -44 -969 970 0
-44 -51 -970 971 0
-51 55 -971 972 0
55 -68 -972 973 0
-68 92 94 -973 0
-6 -17 -34 974 0
-34 37 -52 -974 0
-27 -77 975 976 0
-27 -77 975 -976 0
-27 -77 -975 976 0
-27 -77 -975 -976 0
-28 48 -53 977 0
-53 56 -95 -977 0
10 -20 24 978 0
24 27 -978 979 0
27 -29 -979 980 0
-29 -38 -980 981 0
-38 -64 -981 982 0
-64 -75 86 -982 0
13 18 25 983 0
25 -74 -983 984 0
-74 79 -92 -984 0
19 57 985 986 0
19 57 985 -986 0
19 57 -985 986 0
19 57 -985 -986 0
-22 32 50 987 0
50 57 58 -987 0
1 9 12 988 0
12 19 -988 989 0
19 -52 -989 990 0
-52 55 -990 991 0
55 -68 -85 -991 0
-6 -8 -47 992 0
-6 -8 -47 -992 0
-9 -14 17 993 0
17 31 -993 994 0
31 -42 -994 995 0
-42 64 -995 996 0
64 83 -89 -996 0
3 9 -25 -84 0
-16 -42 57 997 0
57 -82 100 -997 0
7 -9 42 998 0
42 53 -87 -998 0
16 17 58 -72 0
12 24 46 999 0
46 55 95 -999 0
11 -14 56 97 0
-40 -44 1000 1001 0
-40 -44 1000 -1001 0
-40 -44 -1000 1001 0
-40 -44 -1000 -1001 0
48 79 -96 1002 0
48 79 -96 -1002 0
-30 52 -75 1003 0
-75 -79 -91 -1003 0
17 20 23 1004 0
23 -26 -1004 1005 0
-26 -70 -1005 1006 0
-70 72 -1006 1007 0
72 -73 -1007 1008 0
-73 83 -1008 1009 0
83 -87 -1009 1010 0
-87 -90 94 -1010 0
32 -43 -54 93 0
33 51 -56 1011 0
33 51 -56 -1011 0
4 -21 -60 1012 0
-60 65 -1012 1013 0
65 69 -1013 1014 0
69 -81 -1014 1015 0
-81 83 87 -1015 0
-5 -24 41 1016 0
41 -66 -1016 1017 0
-66 88 92 -1017 0
34 44 -53 1018 0
34 44 -53 -1018 0
30 34 -37 -85 0
-1 69 1019 1020 0
-1 69 1019 -1020 0
-1 69 -1019 1020 0
-1 69 -1019 -1020 0
34 -49 60 1021 0
60 66 -1021 1022 0
66 69 -1022 1023 0
69 71 -85 -1023 0
-8 -13 -20 1024 0
-20 -39 -1024 1025 0
-39 -63 -1025 1026 0
-63 -68 -81 -1026 0
45 50 -53 -66 0
34 -36 -39 1027 0
-39 -60 -83 -1027 0
15 -25 72 1028 0
15 -25 72 -1028 0
19 27 91 1029 0
19 27 91 -1029 0
65 66 -81 1030 0
65 66 -81 -1030 0
33 -42 63 79 0
24 -36 40 1031 0
40 42 -1031 1032 0
42 -45 53 -1032 0
34 40 -77 1033 0
34 40 -77 -1033 0
1 -25 -99 1034 0
1 -25 -99 -1034 0
-3 -13 24 1035 0
24 25 -1035 1036 0
25 -66 -1036 1037 0
-66 -70 -74 -1037 0
4 -25 38 1038 0
4 -25 38 -1038 0
21 55 -60 1039 0
-60 -77 -1039 1040 0
-77 84 -1040 1041 0
84 89 -94 -1041 0
41 -43 -48 1042 0
-48 52 -1042 1043 0
52 58 -1043 1044 0
58 69 78 -1044 0
12 -30 -43 1045 0
-43 47 -1045 1046 0
47 59 -1046 1047 0
59 -62 -1047 1048 0
-62 68 -1048 1049 0
68 -74 94 -1049 0
-3 -19 95 1050 0
-3 -19 95 -1050 0
-6 -26 -80 -100 0
-7 -10 13 1051 0
13 -21 -1051 1052 0
-21 -23 -1052 1053 0
-23 -67 -97 -1053 0
17 -40 -44 1054 0
-44 85 -1054 1055 0
85 96 -97 -1055 0
-1 -33 46 1056 0
46 -80 95 -1056 0
-24 -26 50 1057 0
50 78 -1057 1058 0
78 -88 -96 -1058 0
-35 -38 -63 76 0
39 -79 83 1059 0
39 -79 83 -1059 0
-27 52 75 80 0
33 -87 1060 1061 0
33 -87 1060 -1061 0
33 -87 -1060 1061 0
33 -87 -1060 -1061 0
33 -47 -62 67 0
57 99 1062 1063 0
57 99 1062 -1063 0
57 99 -1062 1063 0
57 99 -1062 -1063 0
-22 -34 51 1064 0
-22 -34 51 -1064 0
13 51 -57 1065 0
-57 79 -1065 1066 0
79 80 -92 -1066 0
-21 23 -43 1067 0
-43 47 -1067 1068 0
47 -62 -1068 1069 0
-62 76 -1069 1070 0
76 79 81 -1070 0
-45 65 85 1071 0
85 88 89 -1071 0
-19 39 -53 75 0
-30 62 73 1072 0
-30 62 73 -1072 0
-46 -78 81 1073 0
-46 -78 81 -1073 0
9 -18 21 1074 0
21 41 -1074 1075 0
41 42 94 -1075 0
-15 51 70 1076 0
70 72 74 -1076 0
68 73 1077 1078 0
68 73 1077 -1078 0
68 73 -1077 1078 0
68 73 -1077 -1078 0
-6 -18 -46 1079 0
-46 -59 -69 -1079 0
29 40 97 1080 0
29 40 97 -1080 0
-28 34 -70 1081 0
-28 34 -70 -1081 0
24 43 44 1082 0
44 -79 -1082 1083 0
-79 88 98 -1083 0
-20 31 -36 1084 0
-36 -55 -1084 1085 0
-55 57 -1085 1086 0
57 62 -68 -1086 0
2 65 -67 -100 0
-4 47 49 1087 0
49 -64 66 -1087 0
-5 -72 -94 1088 0
-5 -72 -94 -1088 0
23 -67 -90 1089 0
23 -67 -90 -1089 0
-49 -62 84 1090 0
-49 -62 84 -1090 0
-6 8 -9 1091 0
-6 8 -9 -1091 0
25 -26 -40 1092 0
-40 50 -1092 1093 0
50 -81 -83 -1093 0
26 35 -47 1094 0
-47 -51 87 -1094 0
20 -23 -68 99 0
10 21 32 1095 0
32 35 64 -1095 0
-3 7 -18 -23 0
-5 -10 89 1096 0
-5 -10 89 -1096 0
28 29 -45 1097 0
-45 49 -1097 1098 0
49 51 -1098 1099 0
51 72 -1099 1100 0
72 -79 -88 -1100 0
20 57 72 1101 0
20 57 72 -1101 0
-1 -38 -63 1102 0
-63 74 -1102 1103 0
74 75 -1103 1104 0
75 -90 -93 -1104 0
52 55 77 -92 0
52 -73 85 -86 0
38 -44 -56 1105 0
-56 -77 -1105 1106 0
-77 79 -1106 1107 0
79 80 -1107 1108 0
80 -82 -1108 1109 0
-82 84 -1109 1110 0
84 85 -1110 1111 0
85 -87 -92 -1111 0
-30 51 -72 1112 0
-30 51 -72 -1112 0
2 13 -31 1113 0
2 13 -31 -1113 0
-15 23 24 1114 0
24 43 -1114 1115 0
43 58 -1115 1116 0
58 -81 -90 -1116 0
29 -65 1117 1118 0
29 -65 1117 -1118 0
29 -65 -1117 1118 0
29 -65 -1117 -1118 0
-8 13 30 1119 0
30 -58 -1119 1120 0
-58 76 -94 -1120 0
14 51 68 1121 0
14 51 68 -1121 0
-5 11 33 1122 0
33 47 -1122 1123 0
47 -62 -1123 1124 0
-62 -78 -86 -1124 0
62 -66 1125 1126 0
62 -66 1125 -1126 0
62 -66 -1125 1126 0
62 -66 -1125 -1126 0
-27 -34 1127 1128 0
-27 -34 1127 -1128 0
-27 -34 -1127 1128 0
-27 -34 -1127 -1128 0
-5 52 66 1129 0
66 -77 88 -1129 0
22 54 -100 1130 0
22 54 -100 -1130 0
35 42 51 1131 0
51 53 -1131 1132 0
53 58 -1132 1133 0
58 69 -1133 1134 0
69 -83 -1134 1135 0
-83 -86 96 -1135 0
9 10 17 1136 0
17 -27 -1136 1137 0
-27 -54 -1137 1138 0
-54 62 71 -1138 0
-5 16 -33 1139 0
-33 38 -1139 1140 0
38 -58 -1140 1141 0
-58 -89 -98 -1141 0
16 20 -49 1142 0
-49 -81 100 -1142 0
-2 21 -33 1143 0
-33 58 -75 -1143 0
-4 23 56 -89 0
1 11 25 1144 0
25 -31 -1144 1145 0
-31 34 -1145 1146 0
34 52 -54 -1146 0
10 39 1147 1148 0
10 39 1147 -1148 0
10 39 -1147 1148 0
10 39 -1147 -1148 0
-2 -52 -90 1149 0
-2 -52 -90 -1149 0
72 73 -78 1150 0
-78 -92 100 -1150 0
14 56 84 1151 0
14 56 84 -1151 0
-3 16 21 1152 0
21 -34 -1152 1153 0
-34 38 -1153 1154 0
38 -60 -1154 1155 0
-60 64 -96 -1155 0
-56 79 -94 -99 0
-9 -20 -57 1156 0
-57 81 -88 -1156 0
18 54 -57 1157 0
-57 64 99 -1157 0
-15 98 100 1158 0
-15 98 100 -1158 0
23 26 -53 1159 0
-53 59 84 -1159 0
-9 12 -22 73 0
1 16 31 1160 0
31 38 -1160 1161 0
38 -43 -1161 1162 0
-43 96 97 -1162 0
-55 95 1163 1164 0
-55 95 1163 -1164 0
-55 95 -1163 1164 0
-55 95 -1163 -1164 0
1 -13 -54 1165 0
-54 57 -1165 1166 0
57 -78 -95 -1166 0
9 -15 -19 1167 0
-19 -68 -1167 1168 0
-68 87 92 -1168 0
18 23 -38 1169 0
-38 -64 -1169 1170 0
-64 75 -1170 1171 0
75 77 -1171 1172 0
77 -98 -100 -1172 0
3 -38 -67 1173 0
3 -38 -67 -1173 0
48 76 1174 1175 0
48 76 1174 -1175 0
48 76 -1174 1175 0
48 76 -1174 -1175 0
-15 -25 -48 1176 0
-48 55 -1176 1177 0
55 -61 92 -1177 0
49 -53 1178 1179 0
49 -53 1178 -1179 0
49 -53 -1178 1179 0
49 -53 -1178 -1179 0
14 15 -50 1180 0
-50 81 -1180 1181 0
81 84 -1181 1182 0
84 -91 97 -1182 0
22 23 -30 1183 0
-30 -35 -1183 1184 0
-35 -41 100 -1184 0
-9 16 -17 1185 0
-17 -54 -1185 1186 0
-54 63 -1186 1187 0
63 -66 -1187 1188 0
-66 -90 -94 -1188 0
-31 -37 -50 1189 0
-50 77 -1189 1190 0
77 79 96 -1190 0
16 23 -24 1191 0
-24 62 -1191 1192 0
62 -72 -1192 1193 0
-72 88 -99 -1193 0
-5 10 -17 1194 0
-17 -32 -1194 1195 0
-32 -36 -1195 1196 0
-36 -41 -71 -1196 0
8 -34 -48 1197 0
-48 -52 -1197 1198 0
-52 -56 -1198 1199 0
-56 66 -85 -1199 0
19 26 -37 1200 0
-37 -66 68 -1200 0
-9 -36 -39 52 0
-1 48 -53 1201 0
-53 60 -1201 1202 0
60 61 96 -1202 0
5 -15 35 1203 0
35 37 -1203 1204 0
37 50 -1204 1205 0
50 51 -1205 1206 0
51 67 -1206 1207 0
67 71 -77 -1207 0
30 43 46 1208 0
46 48 -1208 1209 0
48 -62 -79 -1209 0
-19 -42 -48 1210 0
-19 -42 -48 -1210 0
31 32 -38 1211 0
-38 59 -78 -1211 0
28 54 -67 1212 0
-67 -77 -88 -1212 0
-11 19 41 1213 0
41 47 90 -1213 0
-2 15 -56 1214 0
-56 -63 90 -1214 0
47 -60 -83 1215 0
47 -60 -83 -1215 0
-9 -21 45 1216 0
45 46 -57 -1216 0
19 -24 31 1217 0
31 58 -1217 1218 0
58 -59 -1218 1219 0
-59 -70 -1219 1220 0
-70 -85 -88 -1220 0
-8 -11 -47 1221 0
-47 -52 -1221 1222 0
-52 58 -1222 1223 0
58 59 87 -1223 0
-5 9 67 1224 0
67 -96 99 -1224 0
-56 61 90 1225 0
-56 61 90 -1225 0
43 -65 74 1226 0
74 -75 -78 -1226 0
-5 -80 90 1227 0
-5 -80 90 -1227 0
13 -14 31 1228 0
31 32 -1228 1229 0
32 43 -1229 1230 0
43 51 -1230 1231 0
51 -59 -66 -1231 0
-27 31 -39 1232 0
-39 42 -1232 1233 0
42 -43 -1233 1234 0
-43 77 89 -1234 0
-43 59 77 -83 0
62 -84 -88 -100 0
24 -37 54 78 0
-20 -29 61 1235 0
-20 -29 61 -1235 0
-33 -35 41 89 0
-7 -30 -36 71 0
8 18 19 1236 0
19 -22 -1236 1237 0
-22 -32 -1237 1238 0
-32 47 -1238 1239 0
47 -58 -1239 1240 0
-58 97 98 -1240 0
3 -9 12 1241 0
12 67 91 -1241 0
-5 21 61 -100 0
11 -18 27 1242 0
27 -34 -1242 1243 0
-34 58 67 -1243 0
-13 16 22 1244 0
22 -29 -1244 1245 0
-29 -32 -1245 1246 0
-32 53 -1246 1247 0
53 -61 -1247 1248 0
-61 -78 96 -1248 0
-14 17 -20 1249 0
-20 -50 -1249 1250 0
-50 87 -91 -1250 0
6 -7 -25 1251 0
-25 -65 -1251 1252 0
-65 68 -1252 1253 0
68 -80 -1253 1254 0
-80 93 -98 -1254 0
13 52 64 1255 0
64 -86 -95 -1255 0
17 44 -72 74 0
-7 62 1256 1257 0
-7 62 1256 -1257 0
-7 62 -1256 1257 0
-7 62 -1256 -1257 0
15 -52 -81 1258 0
15 -52 -81 -1258 0
-22 -100 1259 1260 0
-22 -100 1259 -1260 0
-22 -100 -1259 1260 0
-22 -100 -1259 -1260 0
19 -33 -45 1261 0
-45 74 -80 -1261 0
-13 -27 33 1262 0
33 40 -1262 1263 0
40 67 -1263 1264 0
67 -71 -1264 1265 0
-71 -90 -99 -1265 0
-67 75 1266 1267 0
-67 75 1266 -1267 0
-67 75 -1266 1267 0
-67 75 -1266 -1267 0
-61 74 99 1268 0
-61 74 99 -1268 0
-12 28 43 1269 0
43 -49 -1269 1270 0
-49 -59 66 -1270 0
-14 38 74 84 0
-4 -15 -20 1271 0
-20 91 -92 -1271 0
-7 -22 -98 1272 0
-7 -22 -98 -1272 0
-9 24 42 94 0
-6 -18 -24 1273 0
-24 47 -1273 1274 0
47 52 -1274 1275 0
52 68 -1275 1276 0
68 70 -1276 1277 0
70 -78 -1277 1278 0
-78 -96 99 -1278 0
9 49 54 69 0
1 -3 -23 1279 0
1 -3 -23 -1279 0
9 -10 22 1280 0
22 67 -87 -1280 0
-15 18 20 -41 0
-3 31 42 1281 0
42 -44 -1281 1282 0
-44 -48 -1282 1283 0
-48 75 -1283 1284 0
75 91 93 -1284 0
-15 19 -36 1285 0
-36 49 98 -1285 0
-3 -41 -76 1286 0
-3 -41 -76 -1286 0
-1 7 -61 1287 0
-61 -73 93 -1287 0
1 3 56 -92 0
11 24 -44 1288 0
-44 -53 -1288 1289 0
-53 -60 -1289 1290 0
-60 64 -77 -1290 0
-15 -26 -43 1291 0
-43 46 -61 -1291 0
-4 -36 -86 1292 0
-4 -36 -86 -1292 0
-37 57 -62 65 0
-1 19 -29 1293 0
-29 33 -1293 1294 0
33 36 -1294 1295 0
36 -38 -1295 1296 0
-38 -47 -1296 1297 0
-47 -73 -1297 1298 0
-73 -84 95 -1298 0
22 27 34 1299 0
34 -83 88 -1299 0
28 66 1300 1301 0
28 66 1300 -1301 0
28 66 -1300 1301 0
28 66 -1300 -1301 0
-31 41 59 1302 0
59 66 67 -1302 0
10 18 21 1303 0
21 28 -1303 1304 0
28 -61 -1304 1305 0
-61 64 -1305 1306 0
64 -77 -94 -1306 0
-15 -17 -56 1307 0
-15 -17 -56 -1307 0
1 -18 -23 1308 0
-23 26 -1308 1309 0
26 40 -1309 1310 0
40 -51 -1310 1311 0
-51 73 -1311 1312 0
73 92 -98 -1312 0
9 12 18 1313 0
18 -34 -93 -1313 0
-25 -51 66 -91 0
16 -18 51 1314 0
51 62 -96 -1314 0
4 25 26 1315 0
26 67 -81 -1315 0
6 21 33 1316 0
33 55 64 -1316 0
20 -23 65 1317 0
20 -23 65 -1317 0
-5 -49 -53 1318 0
-5 -49 -53 -1318 0
57 88 1319 1320 0
57 88 1319 -1320 0
57 88 -1319 1320 0
57 88 -1319 -1320 0
3 -39 61 1321 0
61 -84 -1321 1322 0
-84 -88 -100 -1322 0
2 26 29 1323 0
29 32 -1323 1324 0
32 -35 -1324 1325 0
-35 -79 -1325 1326 0
-79 81 -1326 1327 0
81 -82 -1327 1328 0
-82 92 -1328 1329 0
92 -96 -99 -1329 0
41 -52 -63 1330 0
41 -52 -63 -1330 0
42 60 -65 1331 0
42 60 -65 -1331 0
1 13 -30 1332 0
-30 -69 -1332 1333 0
-69 74 -1333 1334 0
74 78 -1334 1335 0
78 -90 -1335 1336 0
-90 92 96 -1336 0
-14 -33 50 1337 0
50 -75 97 -1337 0
43 53 -62 1338 0
43 53 -62 -1338 0
39 43 -46 -94 0
-10 78 1339 1340 0
-10 78 1339 -1340 0
-10 78 -1339 1340 0
-10 78 -1339 -1340 0
43 -58 69 1341 0
69 75 -1341 1342 0
75 78 -1342 1343 0
78 80 -94 -1343 0
-17 -22 -29 1344 0
-29 -48 -1344 1345 0
-48 -72 -1345 1346 0
-72 -77 -90 -1346 0
54 59 -62 -75 0
43 -45 -48 1347 0
-48 -69 -92 -1347 0
24 -34 81 1348 0
24 -34 81 -1348 0
28 36 100 1349 0
28 36 100 -1349 0
74 75 -90 1350 0
74 75 -90 -1350 0
42 -51 72 88 0
33 -45 49 1351 0
49 51 -1351 1352 0
51 -54 62 -1352 0
-8 43 49 -86 0
10 -34 1353 1354 0
10 -34 1353 -1354 0
10 -34 -1353 1354 0
10 -34 -1353 -1354 0
-12 -22 33 1355 0
33 34 -1355 1356 0
34 -75 -1356 1357 0
-75 -79 -83 -1357 0
-3 13 -34 47 0
30 64 -69 1358 0
-69 -86 -1358 1359 0
-86 93 98 -1359 0
3 50 -52 1360 0
-52 -57 -1360 1361 0
-57 61 -1361 1362 0
61 67 -1362 1363 0
67 78 87 -1363 0
4 21 -39 1364 0
-39 -52 -1364 1365 0
-52 56 -1365 1366 0
56 68 -1366 1367 0
68 -71 -1367 1368 0
-71 77 -83 -1368 0
-9 -12 -28 1369 0
-9 -12 -28 -1369 0
-6 -15 -35 -89 0
5 -6 -16 1370 0
-16 -19 -1370 1371 0
-19 22 -1371 1372 0
22 -30 -1372 1373 0
-30 -32 -76 -1373 0
4 26 -49 1374 0
-49 -53 94 -1374 0
-5 -10 -42 1375 0
-42 55 -89 -1375 0
-33 -35 59 1376 0
59 87 -97 -1376 0
-44 -47 -72 85 0
48 -88 92 1377 0
48 -88 92 -1377 0
-36 61 84 89 0
42 -96 1378 1379 0
42 -96 1378 -1379 0
42 -96 -1378 1379 0
42 -96 -1378 -1379 0
8 42 -56 1380 0
-56 -71 76 -1380 0
-1 -31 -43 60 0
22 60 -66 1381 0
-66 88 89 -1381 0
-30 32 -52 1382 0
-52 56 -1382 1383 0
56 -71 -1383 1384 0
-71 85 -1384 1385 0
85 88 90 -1385 0
-54 74 94 1386 0
94 97 98 -1386 0
-28 48 -62 84 0
-39 71 82 1387 0
-39 71 82 -1387 0
3 -55 -87 90 0
18 -27 30 1388 0
30 50 51 -1388 0
-24 60 79 1389 0
79 81 83 -1389 0
77 82 1390 1391 0
77 82 1390 -1391 0
77 82 -1390 1391 0
77 82 -1390 -1391 0
6 -15 -27 1392 0
-27 -55 -1392 1393 0
-55 -68 -78 -1393 0
38 49 1394 1395 0
38 49 1394 -1395 0
38 49 -1394 1395 0
38 49 -1394 -1395 0
7 -37 43 -79 0
33 52 53 1396 0
53 -88 97 -1396 0
-9 -29 40 1397 0
40 -45 -1397 1398 0
-45 -64 -1398 1399 0
-64 66 -1399 1400 0
66 71 -77 -1400 0
11 74 -76 1401 0
11 74 -76 -1401 0
-3 -13 56 1402 0
56 58 -1402 1403 0
58 -73 75 -1403 0
-14 -81 1404 1405 0
-14 -81 1404 -1405 0
-14 -81 -1404 1405 0
-14 -81 -1404 -1405 0
